NAME          BLANK   
ROWS
 N  OBJROW
 L  bigx
 G  smallx
 E  f
COLUMNS
    s         f         1.          
    pup       OBJROW    1.             bigx       -1.        
    plo       OBJROW    1.             smallx    1.          
    x         bigx      1.             smallx    1.          
    x         f         1.          
RHS
    RHS       bigx      8.9            smallx    8.9         
    RHS       f         10.         
BOUNDS
 UP BOUND     s         10.         
ENDATA
